objective value:                                  190
A_0_0                                               1 	(obj:-5)
O_0_0                                               1 	(obj:20)
A_0_1                                               1 	(obj:-5)
A_0_2                                               1 	(obj:-5)
O_0_2                                               1 	(obj:20)
A_0_3                                               1 	(obj:-5)
O_0_3                                               1 	(obj:20)
A_0_4                                               1 	(obj:-5)
O_0_4                                               1 	(obj:20)
A_1_0                                               1 	(obj:-7)
A_1_1                                               1 	(obj:-7)
O_1_1                                               1 	(obj:25)
A_1_2                                               1 	(obj:-7)
A_1_3                                               1 	(obj:-7)
O_1_3                                               1 	(obj:25)
A_2_0                                               1 	(obj:-4)
O_2_0                                               1 	(obj:17)
A_2_1                                               1 	(obj:-4)
O_2_1                                               1 	(obj:17)
A_2_2                                               1 	(obj:-4)
O_2_2                                               1 	(obj:17)
A_2_3                                               1 	(obj:-4)
O_2_3                                               1 	(obj:17)
A_2_4                                               1 	(obj:-4)
O_2_4                                               1 	(obj:17)
A_3_0                                               1 	(obj:-6)
O_3_0                                               1 	(obj:30)
A_3_1                                               1 	(obj:-6)
O_3_1                                               1 	(obj:30)
